StringID   Type       x          y          demand     ReadyTime  DueDate    ServiceTime
D0         d               2.611    18.236      0.000      0.000     23.983      0.000
S0         f               2.611    18.236      0.000      0.000     23.983      0.000
S1         f              86.040    14.690      0.000      0.000     23.983      0.000
S2         f              65.290    39.520      0.000      0.000     23.983      0.000
C0         c              37.310    89.355      0.010      8.942     12.208      0.133
C1         c               2.405    70.891      0.002     14.054     16.366      0.017
C2         c              91.878    17.375      0.022     11.798     14.530      0.033
C3         c              19.323    48.725      0.006     10.314     13.143      0.117
C4         c              58.391     0.647      0.007     14.118     17.163      0.167

Q Vehicle fuel tank capacity /131.3200/
C Vehicle load capacity /1.1500/
r fuel consumption rate /0.4317/
g inverse refueling rate /0.0080/
v average Velocity /33.5500/
gv charging speed /125.3100/

--------------------
instance_id /386/
number of clusters /5/
working_startTime (hour) /8.00/
working_endTime (hour) /21.93/
instance_endTime (hour) /23.98/
service_time_type /random/
demand_type /20_80/
instance_type /R/
instance x range /[0.0, 100.0]/
instance y range /[0.0, 100.0]/
cs_time_to_depot (hour)/[2.4889515404305764,1.9730000456538737]/
